p cnf 91 377
1 42 45 46 60 83 0
-3 -16 -19 67 -68 91 0
13 -31 58 -73 78 -79 0
3 4 23 -50 51 0
3 4 23 -50 -51 0
-3 -16 67 -68 91 0
4 52 -61 78 84 0
7 9 45 55 64 0
7 40 -43 45 46 0
10 11 12 26 -27 0
10 21 -69 -77 88 0
10 22 -69 -72 88 0
11 -19 -27 -28 57 0
13 -31 58 -73 -79 0
-19 -27 -33 -34 -56 0
20 22 41 53 71 0
-32 -35 -56 -61 -62 0
-3 -16 -19 67 -68 0
4 52 -78 82 84 0
9 -47 -48 55 64 0
-38 41 -54 -70 71 0
1 -42 60 -87 0
1 69 83 88 0
-1 -29 57 73 0
-2 -6 61 62 0
-3 -16 67 91 0
4 23 51 -91 0
-6 37 -63 82 0
-7 -8 -42 -60 0
-8 -45 48 -55 0
10 11 12 26 0
10 21 -77 88 0
11 -30 34 57 0
-11 -14 -15 76 0
12 14 78 -79 0
12 -14 -73 79 0
13 49 67 85 0
17 23 39 40 0
-18 -41 -48 -54 0
19 -50 51 -91 0
19 -50 -68 -91 0
-19 -40 -44 71 0
20 22 -44 -72 0
20 22 -53 -72 0
-20 -22 41 70 0
21 -69 70 88 0
23 25 27 56 0
-23 25 65 80 0
-23 -51 -81 -85 0
25 33 56 59 0
26 28 -31 57 0
-32 -35 -61 -62 0
-35 36 59 82 0
38 -54 64 72 0
50 66 86 -89 0
50 -66 86 -89 0
-3 -23 -86 91 0
-3 50 66 67 0
4 23 -51 85 0
4 23 -68 -91 0
-5 -35 82 84 0
10 22 -69 -72 0
-15 -31 57 58 0
19 51 68 -91 0
-19 25 -27 -33 0
-19 -68 85 -89 0
21 70 83 88 0
25 33 65 80 0
1 2 56 0
1 46 83 0
-1 8 -10 0
-1 8 -88 0
-1 12 78 0
-1 24 -32 0
-1 -24 -59 0
2 5 -52 0
2 -35 -74 0
3 4 25 0
3 4 51 0
3 -51 -81 0
-3 66 -86 0
4 16 -51 0
4 -51 -85 0
4 -61 82 0
4 63 -84 0
4 -67 89 0
4 -82 -84 0
-4 62 84 0
-4 -63 -84 0
5 -78 -84 0
-5 24 35 0
6 35 -36 0
7 9 47 0
7 40 -87 0
7 42 -87 0
-7 -8 -46 0
8 -42 83 0
8 -46 64 0
-8 10 -88 0
-8 -10 -83 0
-8 -39 -43 0
-8 42 45 0
-8 -83 87 0
9 -43 -47 0
-9 -40 43 0
10 -27 -57 0
10 -56 -88 0
-10 -27 -59 0
11 12 -73 0
12 -30 58 0
12 58 79 0
-12 -78 79 0
13 67 85 0
13 67 -90 0
-13 -49 90 0
-13 -67 86 0
-13 -85 90 0
-14 57 -78 0
15 -29 30 0
-15 -58 80 0
16 49 -51 0
-16 -50 -51 0
-16 68 -89 0
17 -44 77 0
-17 -18 -39 0
-17 -21 -77 0
-17 -23 -40 0
-17 38 40 0
18 39 69 0
18 41 60 0
-18 -69 -77 0
19 -33 34 0
19 -33 -36 0
19 -36 -65 0
19 39 42 0
19 39 54 0
19 56 59 0
19 -65 -75 0
19 -75 -76 0
19 81 85 0
-19 -38 54 0
-19 -41 -47 0
-19 51 81 0
-19 51 -81 0
-19 65 -82 0
-19 81 85 0
-19 -81 -85 0
20 -69 -70 0
-20 -21 69 0
-20 70 72 0
23 25 -65 0
23 32 34 0
23 39 48 0
23 -65 -75 0
23 -75 -76 0
-23 25 30 0
-23 -26 -34 0
-24 -25 -33 0
-24 28 31 0
25 -32 -74 0
25 -33 74 0
25 -65 74 0
25 -74 75 0
-25 -33 -36 0
-25 -36 63 0
-25 -74 -80 0
26 -28 31 0
26 -31 -73 0
26 34 57 0
29 30 33 0
29 -30 58 0
29 -30 73 0
-29 36 37 0
33 -35 37 0
-33 34 -74 0
-33 74 -76 0
-36 37 73 0
-36 -37 63 0
38 54 -72 0
-39 -44 -64 0
-39 -48 -55 0
40 43 87 0
40 45 -55 0
-40 -43 -87 0
-41 53 70 0
44 -77 88 0
46 -47 64 0
-46 47 -64 0
49 67 68 0
49 -86 91 0
-50 66 67 0
52 59 82 0
-56 -59 62 0
-65 74 -75 0
-65 -74 -82 0
66 67 -90 0
66 86 90 0
-66 86 -90 0
7 9 45 64 0
1 2 0
1 27 0
1 -32 0
1 -62 0
1 -87 0
1 88 0
-1 -2 0
-1 -3 0
-1 -8 0
-1 -13 0
-1 27 0
-1 36 0
2 6 0
2 24 0
2 -35 0
2 -56 0
2 65 0
-2 -6 0
-2 35 0
-2 -74 0
3 24 0
3 -26 0
3 32 0
3 -32 0
3 45 0
3 50 0
3 -52 0
3 56 0
3 -62 0
3 -67 0
3 -81 0
3 -82 0
3 -87 0
-3 -28 0
-3 50 0
-3 51 0
-3 66 0
4 16 0
4 17 0
4 25 0
4 -52 0
4 -53 0
4 61 0
4 63 0
4 -68 0
4 78 0
4 -82 0
4 -85 0
4 -91 0
-4 -61 0
-4 -63 0
-4 -78 0
5 -36 0
5 41 0
5 -62 0
-5 52 0
-5 61 0
-5 62 0
-5 74 0
-5 78 0
6 -37 0
6 43 0
6 -62 0
6 -82 0
-6 -19 0
-6 32 0
-6 -65 0
7 42 0
7 47 0
7 55 0
7 60 0
-7 -19 0
-7 -45 0
-7 83 0
8 -48 0
8 55 0
8 60 0
8 64 0
8 -67 0
-8 -9 0
-8 55 0
-8 -64 0
-8 88 0
9 39 0
9 47 0
-9 -45 0
-9 -46 0
10 -33 0
10 69 0
10 -70 0
10 83 0
-10 -11 0
-10 -12 0
-10 15 0
-10 -26 0
-10 27 0
-10 66 0
-10 -70 0
11 14 0
11 15 0
11 -19 0
11 34 0
11 -73 0
11 -76 0
11 -80 0
-11 31 0
-11 -57 0
-11 79 0
-11 80 0
12 -27 0
12 -28 0
12 -79 0
-12 -29 0
-12 31 0
-12 -48 0
-12 -57 0
-12 -58 0
-12 73 0
-12 78 0
-12 -79 0
13 -18 0
13 31 0
13 57 0
13 79 0
13 84 0
13 -90 0
13 91 0
-13 28 0
-13 -50 0
-13 68 0
-13 -86 0
14 31 0
14 -57 0
14 73 0
14 79 0
-14 49 0
-14 -80 0
15 31 0
15 -57 0
15 -58 0
-15 29 0
-15 -29 0
-15 -76 0
-15 80 0
16 51 0
-16 -50 0
-16 68 0
-16 -89 0
17 18 0
17 19 0
17 38 0
17 44 0
17 72 0
-17 -19 0
-17 22 0
-17 44 0
-17 45 0
-17 77 0
18 21 0
18 47 0
18 -47 0
-18 -38 0
-18 -43 0
-18 -47 0
-18 -60 0
-18 -64 0
19 34 0
19 41 0
19 47 0
19 56 0
19 59 0
19 60 0
19 69 0
19 -80 0
19 81 0
-19 -24 0
-19 25 0
-19 36 0
